n_boats=80;
n_periods=20;
capacity=[23,59,31,66,1,54,12,35,32,64,32,6,52,49,24,41,6,50,70,41,4,50,31,29,33,31,65,5,53,37,41,40,7,21,14,63,35,13,39,60,26,60,51,4,27,6,63,31,40,39,23,28,4,16,7,37,14,35,30,16,19,10,23,51,14,69,25,23,32,19,50,37,36,15,53,24,46,28,64,4];
crew=[1,49,18,47,1,34,5,19,9,51,29,6,35,36,23,37,4,25,8,27,3,29,6,1,1,12,42,4,15,1,5,2,7,2,1,28,2,5,8,21,15,4,47,3,17,5,16,17,15,12,1,21,4,12,7,34,6,29,25,6,5,1,22,4,5,58,21,20,12,8,15,17,28,11,37,22,36,25,49,3];
